(set-info :smt-lib-version 2.6)
(set-logic UFNIA)
(set-info :source |
Generated by: Geoff Sutcliffe
Generated on: 2026-03-11
Generator: TPTPWorld
Application: Benchmarking automated theorem provers
Time limit: 120.0

These benchmarks are translations from the TPTP Library (Thousands of
Problems for Theorem Provers), see http://www.cs.miami.edu/~tptp/

The TPTP is maintained by Geoff Sutcliffe, and he contributed this
selection of benchmarks to SMT-LIB.  They were exported from the
v9.2.1 realease of TPTP.
|)
(set-info :category "industrial")
(set-info :status unknown)
; SZS status Success
(declare-sort $$unsorted 0)
(declare-sort tptp.uni 0)
(declare-sort tptp.ty 0)
(declare-fun tptp.sort1 (tptp.ty tptp.uni) Bool)
(declare-fun tptp.witness1 (tptp.ty) tptp.uni)
(assert (forall ((A tptp.ty)) (tptp.sort1 A (tptp.witness1 A))))
(declare-fun tptp.int () tptp.ty)
(declare-fun tptp.real () tptp.ty)
(declare-sort tptp.bool1 0)
(declare-fun tptp.bool () tptp.ty)
(declare-fun tptp.true1 () tptp.bool1)
(declare-fun tptp.false1 () tptp.bool1)
(declare-fun tptp.match_bool1 (tptp.ty tptp.bool1 tptp.uni tptp.uni) tptp.uni)
(assert (forall ((A tptp.ty) (X tptp.bool1) (X1 tptp.uni) (X2 tptp.uni)) (tptp.sort1 A (tptp.match_bool1 A X X1 X2))))
(assert (forall ((A tptp.ty) (Z tptp.uni) (Z1 tptp.uni)) (=> (tptp.sort1 A Z) (= (tptp.match_bool1 A tptp.true1 Z Z1) Z))))
(assert (forall ((A tptp.ty) (Z tptp.uni) (Z1 tptp.uni)) (=> (tptp.sort1 A Z1) (= (tptp.match_bool1 A tptp.false1 Z Z1) Z1))))
(assert (not (= tptp.true1 tptp.false1)))
(assert (forall ((U tptp.bool1)) (or (= U tptp.true1) (= U tptp.false1))))
(declare-sort tptp.tuple02 0)
(declare-fun tptp.tuple0 () tptp.ty)
(declare-fun tptp.tuple03 () tptp.tuple02)
(assert (forall ((U tptp.tuple02)) (= U tptp.tuple03)))
(declare-fun tptp.qtmark () tptp.ty)
(declare-fun tptp.map (tptp.ty tptp.ty) tptp.ty)
(declare-fun tptp.get (tptp.ty tptp.ty tptp.uni tptp.uni) tptp.uni)
(assert (forall ((A tptp.ty) (B tptp.ty) (X tptp.uni) (X1 tptp.uni)) (tptp.sort1 B (tptp.get B A X X1))))
(declare-fun tptp.set (tptp.ty tptp.ty tptp.uni tptp.uni tptp.uni) tptp.uni)
(assert (forall ((A tptp.ty) (B tptp.ty) (X tptp.uni) (X1 tptp.uni) (X2 tptp.uni)) (tptp.sort1 (tptp.map A B) (tptp.set B A X X1 X2))))
(assert (forall ((A tptp.ty) (B tptp.ty) (M tptp.uni) (A1 tptp.uni) (A2 tptp.uni) (B1 tptp.uni)) (=> (tptp.sort1 B B1) (=> (= A1 A2) (= (tptp.get B A (tptp.set B A M A1 B1) A2) B1)))))
(assert (forall ((A tptp.ty) (B tptp.ty) (M tptp.uni) (A1 tptp.uni) (A2 tptp.uni)) (=> (tptp.sort1 A A1) (=> (tptp.sort1 A A2) (forall ((B1 tptp.uni)) (=> (not (= A1 A2)) (= (tptp.get B A (tptp.set B A M A1 B1) A2) (tptp.get B A M A2))))))))
(declare-fun tptp.const (tptp.ty tptp.ty tptp.uni) tptp.uni)
(assert (forall ((A tptp.ty) (B tptp.ty) (X tptp.uni)) (tptp.sort1 (tptp.map A B) (tptp.const B A X))))
(assert (forall ((A tptp.ty) (B tptp.ty) (B1 tptp.uni) (A1 tptp.uni)) (=> (tptp.sort1 B B1) (= (tptp.get B A (tptp.const B A B1) A1) B1))))
(declare-fun tptp.ref (tptp.ty) tptp.ty)
(declare-fun tptp.mk_ref (tptp.ty tptp.uni) tptp.uni)
(assert (forall ((A tptp.ty) (X tptp.uni)) (tptp.sort1 (tptp.ref A) (tptp.mk_ref A X))))
(declare-fun tptp.contents (tptp.ty tptp.uni) tptp.uni)
(assert (forall ((A tptp.ty) (X tptp.uni)) (tptp.sort1 A (tptp.contents A X))))
(assert (forall ((A tptp.ty) (U tptp.uni)) (=> (tptp.sort1 A U) (= (tptp.contents A (tptp.mk_ref A U)) U))))
(assert (forall ((A tptp.ty) (U tptp.uni)) (=> (tptp.sort1 (tptp.ref A) U) (= U (tptp.mk_ref A (tptp.contents A U))))))
(declare-sort tptp.loc1 0)
(declare-fun tptp.loc () tptp.ty)
(declare-fun tptp.null1 () tptp.loc1)
(declare-sort tptp.node2 0)
(declare-fun tptp.node () tptp.ty)
(declare-fun tptp.mk_node1 (tptp.loc1 tptp.loc1 Int) tptp.node2)
(declare-fun tptp.left2 (tptp.node2) tptp.loc1)
(assert (forall ((U tptp.loc1) (U1 tptp.loc1) (U2 Int)) (= (tptp.left2 (tptp.mk_node1 U U1 U2)) U)))
(declare-fun tptp.right1 (tptp.node2) tptp.loc1)
(assert (forall ((U tptp.loc1) (U1 tptp.loc1) (U2 Int)) (= (tptp.right1 (tptp.mk_node1 U U1 U2)) U1)))
(declare-fun tptp.data1 (tptp.node2) Int)
(assert (forall ((U tptp.loc1) (U1 tptp.loc1) (U2 Int)) (= (tptp.data1 (tptp.mk_node1 U U1 U2)) U2)))
(assert (forall ((U tptp.node2)) (= U (tptp.mk_node1 (tptp.left2 U) (tptp.right1 U) (tptp.data1 U)))))
(declare-fun tptp.tree (tptp.ty) tptp.ty)
(declare-fun tptp.empty (tptp.ty) tptp.uni)
(assert (forall ((A tptp.ty)) (tptp.sort1 (tptp.tree A) (tptp.empty A))))
(declare-fun tptp.node1 (tptp.ty tptp.uni tptp.uni tptp.uni) tptp.uni)
(assert (forall ((A tptp.ty) (X tptp.uni) (X1 tptp.uni) (X2 tptp.uni)) (tptp.sort1 (tptp.tree A) (tptp.node1 A X X1 X2))))
(declare-fun tptp.match_tree (tptp.ty tptp.ty tptp.uni tptp.uni tptp.uni) tptp.uni)
(assert (forall ((A tptp.ty) (A1 tptp.ty) (X tptp.uni) (X1 tptp.uni) (X2 tptp.uni)) (tptp.sort1 A1 (tptp.match_tree A1 A X X1 X2))))
(assert (forall ((A tptp.ty) (A1 tptp.ty) (Z tptp.uni) (Z1 tptp.uni)) (=> (tptp.sort1 A1 Z) (= (tptp.match_tree A1 A (tptp.empty A) Z Z1) Z))))
(assert (forall ((A tptp.ty) (A1 tptp.ty) (Z tptp.uni) (Z1 tptp.uni) (U tptp.uni) (U1 tptp.uni) (U2 tptp.uni)) (=> (tptp.sort1 A1 Z1) (= (tptp.match_tree A1 A (tptp.node1 A U U1 U2) Z Z1) Z1))))
(assert (forall ((A tptp.ty) (V tptp.uni) (V1 tptp.uni) (V2 tptp.uni)) (not (= (tptp.empty A) (tptp.node1 A V V1 V2)))))
(declare-fun tptp.node_proj_1 (tptp.ty tptp.uni) tptp.uni)
(assert (forall ((A tptp.ty) (X tptp.uni)) (tptp.sort1 (tptp.tree A) (tptp.node_proj_1 A X))))
(assert (forall ((A tptp.ty) (U tptp.uni) (U1 tptp.uni) (U2 tptp.uni)) (= (tptp.node_proj_1 A (tptp.node1 A U U1 U2)) U)))
(declare-fun tptp.node_proj_2 (tptp.ty tptp.uni) tptp.uni)
(assert (forall ((A tptp.ty) (X tptp.uni)) (tptp.sort1 A (tptp.node_proj_2 A X))))
(assert (forall ((A tptp.ty) (U tptp.uni) (U1 tptp.uni) (U2 tptp.uni)) (=> (tptp.sort1 A U1) (= (tptp.node_proj_2 A (tptp.node1 A U U1 U2)) U1))))
(declare-fun tptp.node_proj_3 (tptp.ty tptp.uni) tptp.uni)
(assert (forall ((A tptp.ty) (X tptp.uni)) (tptp.sort1 (tptp.tree A) (tptp.node_proj_3 A X))))
(assert (forall ((A tptp.ty) (U tptp.uni) (U1 tptp.uni) (U2 tptp.uni)) (= (tptp.node_proj_3 A (tptp.node1 A U U1 U2)) U2)))
(assert (forall ((A tptp.ty) (U tptp.uni)) (or (= U (tptp.empty A)) (= U (tptp.node1 A (tptp.node_proj_1 A U) (tptp.node_proj_2 A U) (tptp.node_proj_3 A U))))))
(declare-fun tptp.list (tptp.ty) tptp.ty)
(declare-fun tptp.nil (tptp.ty) tptp.uni)
(assert (forall ((A tptp.ty)) (tptp.sort1 (tptp.list A) (tptp.nil A))))
(declare-fun tptp.cons (tptp.ty tptp.uni tptp.uni) tptp.uni)
(assert (forall ((A tptp.ty) (X tptp.uni) (X1 tptp.uni)) (tptp.sort1 (tptp.list A) (tptp.cons A X X1))))
(declare-fun tptp.match_list (tptp.ty tptp.ty tptp.uni tptp.uni tptp.uni) tptp.uni)
(assert (forall ((A tptp.ty) (A1 tptp.ty) (X tptp.uni) (X1 tptp.uni) (X2 tptp.uni)) (tptp.sort1 A1 (tptp.match_list A1 A X X1 X2))))
(assert (forall ((A tptp.ty) (A1 tptp.ty) (Z tptp.uni) (Z1 tptp.uni)) (=> (tptp.sort1 A1 Z) (= (tptp.match_list A1 A (tptp.nil A) Z Z1) Z))))
(assert (forall ((A tptp.ty) (A1 tptp.ty) (Z tptp.uni) (Z1 tptp.uni) (U tptp.uni) (U1 tptp.uni)) (=> (tptp.sort1 A1 Z1) (= (tptp.match_list A1 A (tptp.cons A U U1) Z Z1) Z1))))
(assert (forall ((A tptp.ty) (V tptp.uni) (V1 tptp.uni)) (not (= (tptp.nil A) (tptp.cons A V V1)))))
(declare-fun tptp.cons_proj_1 (tptp.ty tptp.uni) tptp.uni)
(assert (forall ((A tptp.ty) (X tptp.uni)) (tptp.sort1 A (tptp.cons_proj_1 A X))))
(assert (forall ((A tptp.ty) (U tptp.uni) (U1 tptp.uni)) (=> (tptp.sort1 A U) (= (tptp.cons_proj_1 A (tptp.cons A U U1)) U))))
(declare-fun tptp.cons_proj_2 (tptp.ty tptp.uni) tptp.uni)
(assert (forall ((A tptp.ty) (X tptp.uni)) (tptp.sort1 (tptp.list A) (tptp.cons_proj_2 A X))))
(assert (forall ((A tptp.ty) (U tptp.uni) (U1 tptp.uni)) (= (tptp.cons_proj_2 A (tptp.cons A U U1)) U1)))
(assert (forall ((A tptp.ty) (U tptp.uni)) (or (= U (tptp.nil A)) (= U (tptp.cons A (tptp.cons_proj_1 A U) (tptp.cons_proj_2 A U))))))
(declare-fun tptp.infix_plpl (tptp.ty tptp.uni tptp.uni) tptp.uni)
(assert (forall ((A tptp.ty) (X tptp.uni) (X1 tptp.uni)) (tptp.sort1 (tptp.list A) (tptp.infix_plpl A X X1))))
(assert (forall ((A tptp.ty) (L2 tptp.uni)) (and (= (tptp.infix_plpl A (tptp.nil A) L2) L2) (forall ((X tptp.uni) (X1 tptp.uni)) (= (tptp.infix_plpl A (tptp.cons A X X1) L2) (tptp.cons A X (tptp.infix_plpl A X1 L2)))))))
(assert (forall ((A tptp.ty) (L1 tptp.uni) (L2 tptp.uni) (L3 tptp.uni)) (= (tptp.infix_plpl A L1 (tptp.infix_plpl A L2 L3)) (tptp.infix_plpl A (tptp.infix_plpl A L1 L2) L3))))
(assert (forall ((A tptp.ty) (L tptp.uni)) (= (tptp.infix_plpl A L (tptp.nil A)) L)))
(assert (forall ((X Int) (Y Int) (Z Int)) (=> (<= X Y) (=> (<= 0 Z) (<= (* X Z) (* Y Z))))))
(declare-fun tptp.length1 (tptp.ty tptp.uni) Int)
(assert (forall ((A tptp.ty)) (and (= (tptp.length1 A (tptp.nil A)) 0) (forall ((X tptp.uni) (X1 tptp.uni)) (= (tptp.length1 A (tptp.cons A X X1)) (+ 1 (tptp.length1 A X1)))))))
(assert (forall ((A tptp.ty) (L tptp.uni)) (<= 0 (tptp.length1 A L))))
(assert (forall ((A tptp.ty) (L tptp.uni)) (= (= (tptp.length1 A L) 0) (= L (tptp.nil A)))))
(assert (forall ((A tptp.ty) (L1 tptp.uni) (L2 tptp.uni)) (= (tptp.length1 A (tptp.infix_plpl A L1 L2)) (+ (tptp.length1 A L1) (tptp.length1 A L2)))))
(declare-fun tptp.mem (tptp.ty tptp.uni tptp.uni) Bool)
(assert (forall ((A tptp.ty) (X tptp.uni)) (=> (tptp.sort1 A X) (and (not (tptp.mem A X (tptp.nil A))) (forall ((X1 tptp.uni) (X2 tptp.uni)) (=> (tptp.sort1 A X1) (= (tptp.mem A X (tptp.cons A X1 X2)) (or (= X X1) (tptp.mem A X X2)))))))))
(assert (forall ((A tptp.ty) (X tptp.uni) (L1 tptp.uni) (L2 tptp.uni)) (= (tptp.mem A X (tptp.infix_plpl A L1 L2)) (or (tptp.mem A X L1) (tptp.mem A X L2)))))
(assert (forall ((A tptp.ty) (X tptp.uni) (L tptp.uni)) (=> (tptp.mem A X L) (exists ((L1 tptp.uni) (L2 tptp.uni)) (let ((_let_1 (tptp.list A))) (and (tptp.sort1 _let_1 L1) (tptp.sort1 _let_1 L2) (= L (tptp.infix_plpl A L1 (tptp.cons A X L2)))))))))
(declare-fun tptp.inorder (tptp.ty tptp.uni) tptp.uni)
(assert (forall ((A tptp.ty) (X tptp.uni)) (tptp.sort1 (tptp.list A) (tptp.inorder A X))))
(assert (forall ((A tptp.ty)) (and (= (tptp.inorder A (tptp.empty A)) (tptp.nil A)) (forall ((X tptp.uni) (X1 tptp.uni) (X2 tptp.uni)) (= (tptp.inorder A (tptp.node1 A X X1 X2)) (tptp.infix_plpl A (tptp.inorder A X) (tptp.cons A X1 (tptp.inorder A X2))))))))
(declare-fun tptp.distinct (tptp.ty tptp.uni) Bool)
(assert (forall ((A tptp.ty)) (tptp.distinct A (tptp.nil A))))
(assert (forall ((A tptp.ty) (X tptp.uni)) (tptp.distinct A (tptp.cons A X (tptp.nil A)))))
(assert (forall ((A tptp.ty) (X tptp.uni) (L tptp.uni)) (=> (not (tptp.mem A X L)) (=> (tptp.distinct A L) (tptp.distinct A (tptp.cons A X L))))))
(assert (forall ((A tptp.ty) (Z tptp.uni)) (=> (tptp.distinct A Z) (or (= Z (tptp.nil A)) (exists ((X tptp.uni)) (and (tptp.sort1 A X) (= Z (tptp.cons A X (tptp.nil A))))) (exists ((X tptp.uni) (L tptp.uni)) (and (tptp.sort1 A X) (tptp.sort1 (tptp.list A) L) (not (tptp.mem A X L)) (tptp.distinct A L) (= Z (tptp.cons A X L))))))))
(assert (forall ((A tptp.ty) (L1 tptp.uni) (L2 tptp.uni)) (=> (tptp.distinct A L1) (=> (tptp.distinct A L2) (=> (forall ((X tptp.uni)) (=> (tptp.sort1 A X) (=> (tptp.mem A X L1) (not (tptp.mem A X L2))))) (tptp.distinct A (tptp.infix_plpl A L1 L2)))))))
(declare-sort tptp.tree_loc 0)
(declare-sort tptp.map_loc_node 0)
(declare-fun tptp.istree1 (tptp.map_loc_node tptp.loc1 tptp.tree_loc) Bool)
(declare-fun tptp.t2tb (tptp.tree_loc) tptp.uni)
(assert (forall ((X tptp.tree_loc)) (tptp.sort1 (tptp.tree tptp.loc) (tptp.t2tb X))))
(declare-fun tptp.tb2t (tptp.uni) tptp.tree_loc)
(assert (forall ((I tptp.tree_loc)) (= (tptp.tb2t (tptp.t2tb I)) I)))
(assert (forall ((J tptp.uni)) (= (tptp.t2tb (tptp.tb2t J)) J)))
(assert (forall ((M tptp.map_loc_node)) (tptp.istree1 M tptp.null1 (tptp.tb2t (tptp.empty tptp.loc)))))
(declare-fun tptp.t2tb1 (tptp.map_loc_node) tptp.uni)
(assert (forall ((X tptp.map_loc_node)) (tptp.sort1 (tptp.map tptp.loc tptp.node) (tptp.t2tb1 X))))
(declare-fun tptp.tb2t1 (tptp.uni) tptp.map_loc_node)
(assert (forall ((I tptp.map_loc_node)) (= (tptp.tb2t1 (tptp.t2tb1 I)) I)))
(assert (forall ((J tptp.uni)) (= (tptp.t2tb1 (tptp.tb2t1 J)) J)))
(declare-fun tptp.t2tb2 (tptp.node2) tptp.uni)
(assert (forall ((X tptp.node2)) (tptp.sort1 tptp.node (tptp.t2tb2 X))))
(declare-fun tptp.tb2t2 (tptp.uni) tptp.node2)
(assert (forall ((I tptp.node2)) (= (tptp.tb2t2 (tptp.t2tb2 I)) I)))
(assert (forall ((J tptp.uni)) (= (tptp.t2tb2 (tptp.tb2t2 J)) J)))
(declare-fun tptp.t2tb3 (tptp.loc1) tptp.uni)
(assert (forall ((X tptp.loc1)) (tptp.sort1 tptp.loc (tptp.t2tb3 X))))
(declare-fun tptp.tb2t3 (tptp.uni) tptp.loc1)
(assert (forall ((I tptp.loc1)) (= (tptp.tb2t3 (tptp.t2tb3 I)) I)))
(assert (forall ((J tptp.uni)) (=> (tptp.sort1 tptp.loc J) (= (tptp.t2tb3 (tptp.tb2t3 J)) J))))
(assert (forall ((M tptp.map_loc_node) (P tptp.loc1) (L tptp.tree_loc) (R tptp.tree_loc)) (let ((_let_1 (tptp.t2tb3 P))) (let ((_let_2 (tptp.tb2t2 (tptp.get tptp.node tptp.loc (tptp.t2tb1 M) _let_1)))) (=> (not (= P tptp.null1)) (=> (tptp.istree1 M (tptp.left2 _let_2) L) (=> (tptp.istree1 M (tptp.right1 _let_2) R) (tptp.istree1 M P (tptp.tb2t (tptp.node1 tptp.loc (tptp.t2tb L) _let_1 (tptp.t2tb R)))))))))))
(assert (forall ((Z tptp.map_loc_node) (Z1 tptp.loc1) (Z2 tptp.tree_loc)) (=> (tptp.istree1 Z Z1 Z2) (or (exists ((M tptp.map_loc_node)) (and (= Z M) (= Z1 tptp.null1) (= Z2 (tptp.tb2t (tptp.empty tptp.loc))))) (exists ((M tptp.map_loc_node) (P tptp.loc1) (L tptp.tree_loc) (R tptp.tree_loc)) (let ((_let_1 (tptp.t2tb3 P))) (let ((_let_2 (tptp.tb2t2 (tptp.get tptp.node tptp.loc (tptp.t2tb1 M) _let_1)))) (and (not (= P tptp.null1)) (tptp.istree1 M (tptp.left2 _let_2) L) (tptp.istree1 M (tptp.right1 _let_2) R) (= Z M) (= Z1 P) (= Z2 (tptp.tb2t (tptp.node1 tptp.loc (tptp.t2tb L) _let_1 (tptp.t2tb R))))))))))))
(declare-fun tptp.zipper (tptp.ty) tptp.ty)
(declare-fun tptp.top (tptp.ty) tptp.uni)
(assert (forall ((A tptp.ty)) (tptp.sort1 (tptp.zipper A) (tptp.top A))))
(declare-fun tptp.left1 (tptp.ty tptp.uni tptp.uni tptp.uni) tptp.uni)
(assert (forall ((A tptp.ty) (X tptp.uni) (X1 tptp.uni) (X2 tptp.uni)) (tptp.sort1 (tptp.zipper A) (tptp.left1 A X X1 X2))))
(declare-fun tptp.match_zipper1 (tptp.ty tptp.ty tptp.uni tptp.uni tptp.uni) tptp.uni)
(assert (forall ((A tptp.ty) (A1 tptp.ty) (X tptp.uni) (X1 tptp.uni) (X2 tptp.uni)) (tptp.sort1 A1 (tptp.match_zipper1 A1 A X X1 X2))))
(assert (forall ((A tptp.ty) (A1 tptp.ty) (Z tptp.uni) (Z1 tptp.uni)) (=> (tptp.sort1 A1 Z) (= (tptp.match_zipper1 A1 A (tptp.top A) Z Z1) Z))))
(assert (forall ((A tptp.ty) (A1 tptp.ty) (Z tptp.uni) (Z1 tptp.uni) (U tptp.uni) (U1 tptp.uni) (U2 tptp.uni)) (=> (tptp.sort1 A1 Z1) (= (tptp.match_zipper1 A1 A (tptp.left1 A U U1 U2) Z Z1) Z1))))
(assert (forall ((A tptp.ty) (V tptp.uni) (V1 tptp.uni) (V2 tptp.uni)) (not (= (tptp.top A) (tptp.left1 A V V1 V2)))))
(declare-fun tptp.left_proj_11 (tptp.ty tptp.uni) tptp.uni)
(assert (forall ((A tptp.ty) (X tptp.uni)) (tptp.sort1 (tptp.zipper A) (tptp.left_proj_11 A X))))
(assert (forall ((A tptp.ty) (U tptp.uni) (U1 tptp.uni) (U2 tptp.uni)) (= (tptp.left_proj_11 A (tptp.left1 A U U1 U2)) U)))
(declare-fun tptp.left_proj_21 (tptp.ty tptp.uni) tptp.uni)
(assert (forall ((A tptp.ty) (X tptp.uni)) (tptp.sort1 A (tptp.left_proj_21 A X))))
(assert (forall ((A tptp.ty) (U tptp.uni) (U1 tptp.uni) (U2 tptp.uni)) (=> (tptp.sort1 A U1) (= (tptp.left_proj_21 A (tptp.left1 A U U1 U2)) U1))))
(declare-fun tptp.left_proj_31 (tptp.ty tptp.uni) tptp.uni)
(assert (forall ((A tptp.ty) (X tptp.uni)) (tptp.sort1 (tptp.tree A) (tptp.left_proj_31 A X))))
(assert (forall ((A tptp.ty) (U tptp.uni) (U1 tptp.uni) (U2 tptp.uni)) (= (tptp.left_proj_31 A (tptp.left1 A U U1 U2)) U2)))
(assert (forall ((A tptp.ty) (U tptp.uni)) (or (= U (tptp.top A)) (= U (tptp.left1 A (tptp.left_proj_11 A U) (tptp.left_proj_21 A U) (tptp.left_proj_31 A U))))))
(declare-fun tptp.zip (tptp.ty tptp.uni tptp.uni) tptp.uni)
(assert (forall ((A tptp.ty) (X tptp.uni) (X1 tptp.uni)) (tptp.sort1 (tptp.tree A) (tptp.zip A X X1))))
(assert (forall ((A tptp.ty) (T tptp.uni)) (and (= (tptp.zip A T (tptp.top A)) T) (forall ((X tptp.uni) (X1 tptp.uni) (X2 tptp.uni)) (= (tptp.zip A T (tptp.left1 A X X1 X2)) (tptp.zip A (tptp.node1 A T X1 X2) X))))))
(declare-sort tptp.a1 0)
(declare-fun tptp.a () tptp.ty)
(declare-sort tptp.zipper_a 0)
(declare-fun tptp.t2tb4 (tptp.zipper_a) tptp.uni)
(assert (forall ((X tptp.zipper_a)) (tptp.sort1 (tptp.zipper tptp.a) (tptp.t2tb4 X))))
(declare-fun tptp.tb2t4 (tptp.uni) tptp.zipper_a)
(assert (forall ((I tptp.zipper_a)) (= (tptp.tb2t4 (tptp.t2tb4 I)) I)))
(assert (forall ((J tptp.uni)) (= (tptp.t2tb4 (tptp.tb2t4 J)) J)))
(declare-fun tptp.t2tb5 (tptp.a1) tptp.uni)
(assert (forall ((X tptp.a1)) (tptp.sort1 tptp.a (tptp.t2tb5 X))))
(declare-fun tptp.tb2t5 (tptp.uni) tptp.a1)
(assert (forall ((I tptp.a1)) (= (tptp.tb2t5 (tptp.t2tb5 I)) I)))
(assert (forall ((J tptp.uni)) (=> (tptp.sort1 tptp.a J) (= (tptp.t2tb5 (tptp.tb2t5 J)) J))))
(declare-sort tptp.list_a 0)
(declare-fun tptp.t2tb6 (tptp.list_a) tptp.uni)
(assert (forall ((X tptp.list_a)) (tptp.sort1 (tptp.list tptp.a) (tptp.t2tb6 X))))
(declare-fun tptp.tb2t6 (tptp.uni) tptp.list_a)
(assert (forall ((I tptp.list_a)) (= (tptp.tb2t6 (tptp.t2tb6 I)) I)))
(assert (forall ((J tptp.uni)) (= (tptp.t2tb6 (tptp.tb2t6 J)) J)))
(declare-sort tptp.tree_a 0)
(declare-fun tptp.t2tb7 (tptp.tree_a) tptp.uni)
(assert (forall ((X tptp.tree_a)) (tptp.sort1 (tptp.tree tptp.a) (tptp.t2tb7 X))))
(declare-fun tptp.tb2t7 (tptp.uni) tptp.tree_a)
(assert (forall ((I tptp.tree_a)) (= (tptp.tb2t7 (tptp.t2tb7 I)) I)))
(assert (forall ((J tptp.uni)) (= (tptp.t2tb7 (tptp.tb2t7 J)) J)))
(assert (not (forall ((X tptp.zipper_a) (X1 tptp.a1) (X2 tptp.tree_a)) (=> (forall ((X3 tptp.a1) (L tptp.tree_a) (R tptp.tree_a)) (let ((_let_1 (tptp.t2tb4 X))) (let ((_let_2 (tptp.t2tb7 R))) (let ((_let_3 (tptp.t2tb5 X3))) (let ((_let_4 (tptp.t2tb7 L))) (= (tptp.tb2t6 (tptp.inorder tptp.a (tptp.zip tptp.a (tptp.node1 tptp.a _let_4 _let_3 _let_2) _let_1))) (tptp.tb2t6 (tptp.infix_plpl tptp.a (tptp.inorder tptp.a _let_4) (tptp.cons tptp.a _let_3 (tptp.inorder tptp.a (tptp.zip tptp.a _let_2 _let_1))))))))))) (forall ((X3 tptp.a1) (L tptp.tree_a) (R tptp.tree_a)) (let ((_let_1 (tptp.left1 tptp.a (tptp.t2tb4 X) (tptp.t2tb5 X1) (tptp.t2tb7 X2)))) (let ((_let_2 (tptp.t2tb7 R))) (let ((_let_3 (tptp.t2tb5 X3))) (let ((_let_4 (tptp.t2tb7 L))) (= (tptp.tb2t6 (tptp.inorder tptp.a (tptp.zip tptp.a (tptp.node1 tptp.a _let_4 _let_3 _let_2) _let_1))) (tptp.tb2t6 (tptp.infix_plpl tptp.a (tptp.inorder tptp.a _let_4) (tptp.cons tptp.a _let_3 (tptp.inorder tptp.a (tptp.zip tptp.a _let_2 _let_1)))))))))))))))
(check-sat)
(exit)
